NAME = SAfile180,
TOURSIZE = 180,
LENGTH = 1960,
111,110,105,85,60,14,168,89,118,44,24,137,62,72,82,127,126,101,26,94,48,81,112,65,100,143,146,49,99,119,71,140,5,9,148,59,161,151,117,78,159,153,123,124,55,169,177,104,145,163,74,77,70,23,37,36,66,64,171,83,41,155,128,42,21,8,93,79,162,61,15,147,40,46,138,35,107,149,150,132,6,22,175,173,174,130,84,116,172,45,12,16,29,152,139,43,52,135,158,92,95,109,30,51,47,178,7,120,115,165,160,10,34,3,39,75,167,90,136,18,2,156,97,179,166,106,19,17,68,20,122,134,13,80,121,57,113,32,4,50,38,63,11,1,91,98,142,154,129,102,88,25,133,144,108,157,56,86,87,69,67,131,76,176,180,58,125,33,73,28,54,164,170,96,103,53,31,141,27,114